NAME : XML100_3336_08
DIMENSION : 101
NB_CLUSTERS : 8
CLUSTERING_ALG : KMedoids
CLUSTERING_PARAMS : k(7)
CLUSTERS
1 0
2 2 3 28 38 39 42 44 70
3 9 21 22 26 61 66 89 93
4 4 6 7 8 11 12 17 19 32 36 40 49 51 55 59 60 63 65 67 68 71 73 74 76 77 82 84 87 92 94 96
5 1 14 16 24 25 34 46 56 79 90 99 100
6 10 20 33 48 54 57 58 75 78 81 86 95
7 5 13 15 23 27 29 30 31 45 47 50 52 62 72 80 91 98
8 18 35 37 41 43 53 64 69 83 85 88 97
EOF